(set-logic ALL)
(declare-var conf_0 (BitVec 32))
(declare-var conf_0! (BitVec 32))
(declare-var conf_1 (BitVec 32))
(declare-var conf_1! (BitVec 32))
(declare-var conf_2 (BitVec 32))
(declare-var conf_2! (BitVec 32))
(declare-var conf_3 (BitVec 32))
(declare-var conf_3! (BitVec 32))
(declare-var conf_4 (BitVec 32))
(declare-var conf_4! (BitVec 32))
(declare-var m (BitVec 32))
(declare-var m! (BitVec 32))
(declare-var n (BitVec 32))
(declare-var n! (BitVec 32))
(declare-var x (BitVec 32))
(declare-var x! (BitVec 32))
(declare-var tmp (BitVec 32))
(declare-var tmp! (BitVec 32))
(declare-var conf_0_0 (BitVec 32))
(declare-var conf_0_0! (BitVec 32))
(declare-var conf_1_0 (BitVec 32))
(declare-var conf_1_0! (BitVec 32))
(declare-var conf_1_1 (BitVec 32))
(declare-var conf_1_1! (BitVec 32))
(declare-var conf_1_2 (BitVec 32))
(declare-var conf_1_2! (BitVec 32))
(declare-var conf_1_3 (BitVec 32))
(declare-var conf_1_3! (BitVec 32))
(declare-var conf_2_0 (BitVec 32))
(declare-var conf_2_0! (BitVec 32))
(declare-var conf_3_0 (BitVec 32))
(declare-var conf_3_0! (BitVec 32))
(declare-var conf_3_1 (BitVec 32))
(declare-var conf_3_1! (BitVec 32))
(declare-var conf_3_2 (BitVec 32))
(declare-var conf_3_2! (BitVec 32))
(declare-var conf_4_0 (BitVec 32))
(declare-var conf_4_0! (BitVec 32))
(declare-var m_0 (BitVec 32))
(declare-var m_0! (BitVec 32))
(declare-var m_1 (BitVec 32))
(declare-var m_1! (BitVec 32))
(declare-var m_2 (BitVec 32))
(declare-var m_2! (BitVec 32))
(declare-var m_3 (BitVec 32))
(declare-var m_3! (BitVec 32))
(declare-var m_4 (BitVec 32))
(declare-var m_4! (BitVec 32))
(declare-var n_0 (BitVec 32))
(declare-var n_0! (BitVec 32))
(declare-var x_0 (BitVec 32))
(declare-var x_0! (BitVec 32))
(declare-var x_1 (BitVec 32))
(declare-var x_1! (BitVec 32))
(declare-var x_2 (BitVec 32))
(declare-var x_2! (BitVec 32))
(declare-var x_3 (BitVec 32))
(declare-var x_3! (BitVec 32))
(synth-fun inv-f((parameter0 (BitVec 32))(parameter1 (BitVec 32))(parameter2 (BitVec 32))(parameter3 (BitVec 32))(parameter4 (BitVec 32))(parameter5 (BitVec 32))(parameter6 (BitVec 32))(parameter7 (BitVec 32))(parameter8 (BitVec 32))(parameter9 (BitVec 32))(parameter10 (BitVec 32))(parameter11 (BitVec 32))(parameter12 (BitVec 32))(parameter13 (BitVec 32))(parameter14 (BitVec 32))(parameter15 (BitVec 32))(parameter16 (BitVec 32))(parameter17 (BitVec 32))(parameter18 (BitVec 32))(parameter19 (BitVec 32))(parameter20 (BitVec 32))(parameter21 (BitVec 32))(parameter22 (BitVec 32))(parameter23 (BitVec 32))(parameter24 (BitVec 32))(parameter25 (BitVec 32))(parameter26 (BitVec 32))(parameter27 (BitVec 32))(parameter28 (BitVec 32)))Bool) 
(constraint (=> (and (and (and (and (and (and (and (and (and (and (and (and (and (= conf_0 conf_0_0) (= conf_1 conf_1_0) ) (= conf_2 conf_2_0) ) (= conf_3 conf_3_0) ) (= conf_4 conf_4_0) ) (= m m_1) ) (= x x_1) ) (= conf_0_0 (_ bv6 32)) ) (= conf_1_0 (_ bv3 32)) ) (= conf_2_0 (_ bv3 32)) ) (= conf_3_0 (_ bv6 32)) ) (= conf_4_0 (_ bv0 32)) ) (= x_1 (_ bv1 32)) ) (= m_1 (_ bv1 32)) )(inv-f conf_0 conf_1 conf_2 conf_3 conf_4 m n x tmp conf_0_0 conf_1_0 conf_1_1 conf_1_2 conf_1_3 conf_2_0 conf_3_0 conf_3_1 conf_3_2 conf_4_0 m_0 m_1 m_2 m_3 m_4 n_0 x_0 x_1 x_2 x_3 )))
(constraint (=> (and (inv-f conf_0 conf_1 conf_2 conf_3 conf_4 m n x tmp conf_0_0 conf_1_0 conf_1_1 conf_1_2 conf_1_3 conf_2_0 conf_3_0 conf_3_1 conf_3_2 conf_4_0 m_0 m_1 m_2 m_3 m_4 n_0 x_0 x_1 x_2 x_3 ) (or (or (and (and (and (and (and (and (and (and (and (and (and (and (and (and (and (and (= conf_1_1 conf_1) (= conf_3_1 conf_3) ) (= m_2 m) ) (= x_2 x) ) (= conf_1_1 conf_1!) ) (= conf_3_1 conf_3!) ) (= m_2 m!) ) (= x_2 x!) ) (= n n_0) ) (= n! n_0) ) (= conf_0 conf_0!) ) (= conf_1 conf_1!) ) (= conf_2 conf_2!) ) (= conf_3 conf_3!) ) (= conf_4 conf_4!) ) (= m m!) ) (= tmp tmp!) ) (and (and (and (and (and (and (and (and (and (and (and (and (and (and (and (and (and (and (and (and (and (and (and (= conf_1_1 conf_1) (= conf_3_1 conf_3) ) (= m_2 m) ) (= x_2 x) ) (bvult x_2 n_0) ) (= m_3 x_2) ) (= conf_1_2 (_ bv419 32)) ) (= conf_1_3 conf_1_2) ) (= m_4 m_3) ) (= x_3 (bvadd x_2 (_ bv1 32))) ) (= conf_3_2 (bvadd conf_2_0 conf_2_0)) ) (= conf_1_3 conf_1!) ) (= conf_3_2 conf_3!) ) (= m_4 m!) ) (= x_3 x!) ) (= conf_0 conf_0_0) ) (= conf_0! conf_0_0) ) (= conf_2 conf_2_0) ) (= conf_2! conf_2_0) ) (= conf_4 conf_4_0) ) (= conf_4! conf_4_0) ) (= n n_0) ) (= n! n_0) ) (= tmp tmp!) ) ) (and (and (and (and (and (and (and (and (and (and (and (and (and (and (and (and (and (and (and (and (and (= conf_1_1 conf_1) (= conf_3_1 conf_3) ) (= m_2 m) ) (= x_2 x) ) (bvult x_2 n_0) ) (= conf_1_3 conf_1_1) ) (= m_4 m_2) ) (= x_3 (bvadd x_2 (_ bv1 32))) ) (= conf_3_2 (bvadd conf_2_0 conf_2_0)) ) (= conf_1_3 conf_1!) ) (= conf_3_2 conf_3!) ) (= m_4 m!) ) (= x_3 x!) ) (= conf_0 conf_0_0) ) (= conf_0! conf_0_0) ) (= conf_2 conf_2_0) ) (= conf_2! conf_2_0) ) (= conf_4 conf_4_0) ) (= conf_4! conf_4_0) ) (= n n_0) ) (= n! n_0) ) (= tmp tmp!) ) ) )(inv-f conf_0! conf_1! conf_2! conf_3! conf_4! m! n! x! tmp! conf_0_0! conf_1_0! conf_1_1! conf_1_2! conf_1_3! conf_2_0! conf_3_0! conf_3_1! conf_3_2! conf_4_0! m_0! m_1! m_2! m_3! m_4! n_0! x_0! x_1! x_2! x_3! )))
(constraint (=> (inv-f conf_0 conf_1 conf_2 conf_3 conf_4 m n x tmp conf_0_0 conf_1_0 conf_1_1 conf_1_2 conf_1_3 conf_2_0 conf_3_0 conf_3_1 conf_3_2 conf_4_0 m_0 m_1 m_2 m_3 m_4 n_0 x_0 x_1 x_2 x_3 )(or (not (and (and (and (and (and (and (and (= conf_0 conf_0_0) (= conf_1 conf_1_1) ) (= conf_2 conf_2_0) ) (= conf_3 conf_3_1) ) (= conf_4 conf_4_0) ) (= m m_2) ) (= n n_0) ) (= x x_2) )) (not (and (and (not (bvult x_2 n_0)) (bvugt n_0 (_ bv1 32)) ) (not (bvult m_2 n_0)) )) )))
(check-synth)

